42450
67,68,74,75,76,77,78,79,80,82,81,90,91,89,83,84,85,86,87,88,94,92,93,97,96,98,102,156,157,158,159,163,160,161,162,166,165,164,169,170,171,135,134,136,175,173,172,174,176,189,177,178,180,181,179,182,183,195,196,194,193,191,192,198,200,202,201,199,197,152,153,155,154,146,147,148,149,150,151,190,188,187,186,184,185,141,140,143,145,144,25,24,23,22,137,142,138,139,132,133,168,116,115,114,101,117,167,125,126,124,123,120,119,121,122,113,112,100,95,50,48,49,47,45,42,44,43,35,36,41,103,46,108,110,99,111,109,107,106,105,104,40,118,39,38,37,130,131,129,128,127,29,28,27,26,20,21,19,11,18,17,9,10,12,13,8,7,6,5,4,2,1,3,16,14,15,30,31,32,33,34,53,56,52,51,54,55,57,58,59,60,61,62,72,71,69,70,73,64,63,65,66,67
